&CONTROL
 calculation = 'relax'
 prefix='Si'
 outdir='./outdir'
 pseudo_dir = '/home/cmp-physics/quantum_espresso/potentials/SSSP_efficiency_pseudos/'
/

&SYSTEM
 ibrav=1,
 A=5.49783,
 nat=9, ntyp=2,
 occupations='smearing', smearing='gaussian', degauss=0.01,
 ecutwfc=50.0
/

&ELECTRONS
/

&IONS
/

&CELL
/

ATOMIC_SPECIES
Si 28.0855 Si.pbe-n-rrkjus_psl.1.0.0.UPF
He 4.003 He_ONCV_PBE-1.0.oncvpsp.upf

ATOMIC_POSITIONS (crystal)
Si 0.00 0.00 0.00
Si 0.25 0.25 0.25
Si 0.50 0.50 0.00
Si 0.75 0.75 0.25
Si 0.50 0.00 0.50
Si 0.75 0.25 0.75
Si 0.00 0.50 0.50
Si 0.25 0.75 0.75
He 0.25 0.25 0.75

K_POINTS automatic
 28 28 28 0 0 0