&projwfc
 prefix='ws2'
 outdir='./outdir'
 filpdos='ws2.pdos.dat'
 Emin=-16 
 Emax=8 
 DeltaE=0.005
/
