&control
  calculation='relax',
  restart_mode='from_scratch',
  prefix='ws2',
  pseudo_dir = '/home/cmp-physics/quantum_espresso/potentials/SSSP_efficiency_pseudos/'
  outdir='./outdir',
  etot_conv_thr=1.0d-6,
  forc_conv_thr=1.0d-5,
/

&system
  ibrav= 0,
  nat= 3, ntyp= 2,
  ecutwfc=50.0, ecutrho=160.0
/

&electrons
  conv_thr =  1.0d-8,
  mixing_beta = 0.7
/

&ions
  ion_dynamics='bfgs',
/

ATOMIC_SPECIES
 W 183.84  W_pbe_v1.2.uspp.F.UPF
 S  32.065 s_pbe_v1.4.uspp.F.UPF

ATOMIC_POSITIONS (angstrom)
 W  -0.17682   2.02989   8.22727
 S   1.41854   1.10880   6.35544
 S   1.41854   1.10880  10.09910

CELL_PARAMETERS (angstrom)
  3.19073   0.00000   0.00000
 -1.59537   2.76325   0.00000
  0.00000   0.00000  16.900

K_POINTS {automatic}
  18 18 1 0 0 0
