&CONTROL
 calculation = 'bands'
 prefix='c'
 outdir='./outdir'
 pseudo_dir = '/home/cmp-physics/quantum_espresso/potentials/SSSP_efficiency_pseudos/'
/

&SYSTEM
 ibrav=2,
 A=4.08621,
 nat=2, ntyp=2,
 occupations='smearing', smearing='gaussian', degauss=0.01,
 ecutwfc=50.0
/

&ELECTRONS
/

&IONS
/

&CELL
/

ATOMIC_SPECIES
Ga 69.723 Ga.pbe-dn-kjpaw_psl.1.0.0.UPF
As 74.922 As.pbe-n-rrkjus_psl.0.2.UPF

ATOMIC_POSITIONS (crystal)
Ga 0.00 0.00 0.00
As 0.75 0.75 0.75

K_POINTS crystal_b
5
0.250 0.250 0.250 100 ! L
0.000 0.000 0.000 100 ! G
0.500 0.000 0.000 100 ! X
0.500 0.125 0.125 100 ! U
0.000 0.000 0.000 100 ! G
