BEGIN
BEGIN_PATH_INPUT
&PATH
 string_method = 'neb'
 nstep_path = 150
 num_of_images = 7 ! good to use an odd number
/
END_PATH_INPUT

BEGIN_ENGINE_INPUT
&CONTROL
 prefix='he_in_ge'
 outdir='./outdir'
 pseudo_dir = '/home/cmp-physics/quantum_espresso/potentials/SSSP_efficiency_pseudos/'
/

&SYSTEM
 ibrav=1
 A=3.64656,
 nat=9, ntyp=2,
 ecutwfc=30.0 ! start low because takes a long time to run
/

&ELECTRONS
/

&IONS
/

ATOMIC_SPECIES
He 4.003 He_ONCV_PBE-1.0.oncvpsp.upf
C 12.0107 C.pbe-n-kjpaw_psl.1.0.0.UPF

K_POINTS automatic
3 3 3 0 0 0 ! start low because takes a long time to run

BEGIN_POSITIONS

FIRST_IMAGE
ATOMIC_POSITIONS crystal
C            -0.0059717420       -0.0059717420        0.0059717420
C             0.2500000000        0.2500000000        0.2500000000
C             0.5059717420        0.5059717420        0.0059717420
C             0.7500000000        0.7500000000        0.2500000000
C             0.5059717420       -0.0059717420        0.4940282580
C             0.7500000000        0.2500000000        0.7500000000
C            -0.0059717420        0.5059717420        0.4940282580
C             0.2500000000        0.7500000000        0.7500000000
He            0.2500000000        0.2500000000        0.7500000000

LAST_IMAGE
ATOMIC_POSITIONS crystal
C            -0.0059717403        0.0059717403       -0.0059717403
C             0.2500000000        0.2500000000        0.2500000000
C             0.5059717403        0.4940282597       -0.0059717403
C             0.7500000000        0.7500000000        0.2500000000
C             0.5059717403        0.0059717403        0.5059717403
C             0.7500000000        0.2500000000        0.7500000000
C            -0.0059717403        0.4940282597        0.5059717403
C             0.2500000000        0.7500000000        0.7500000000
He            0.2500000000        0.7500000000        0.2500000000

END_POSITIONS
END_ENGINE_INPUT
END