&CONTROL
 calculation = 'relax'
 prefix='c'
 outdir='./outdir'
 pseudo_dir = '/home/cmp-physics/quantum_espresso/potentials/SSSP_efficiency_pseudos/'
/

&SYSTEM
 ibrav=0,
 nat=8, ntyp=2,
 occupations='smearing', smearing='gaussian', degauss=0.01,
 ecutwfc=50.0
/

&ELECTRONS
/

&IONS
/

&CELL
/

ATOMIC_SPECIES
Ga 69.723 Ga.pbe-dn-kjpaw_psl.1.0.0.UPF
As 74.922 As.pbe-n-rrkjus_psl.0.2.UPF

ATOMIC_POSITIONS (crystal)
Ga 0.00 0.00 0.00
Ga 0.00 0.50 0.50
Ga 0.50 0.00 0.50
Ga 0.50 0.50 0.00
As 0.25 0.25 0.25
As 0.25 0.75 0.75
As 0.75 0.25 0.75
As 0.75 0.75 0.25

CELL_PARAMETERS (angstrom)
 6.000 0.000 0.000
 0.000 6.000 0.000
 0.000 0.000 6.000

K_POINTS automatic
 20 20 20 0 0 0