&bands
prefix='Si'
outdir='./outdir'
filband='Si.bands.dat'
/
