&CONTROL
 calculation = 'vc-relax'
 pseudo_dir = '/home/cmp-physics/quantum_espresso/potentials/SSSP_efficiency_pseudos/'
/

&SYSTEM
 ibrav=1,
 A=3.5,
 nat=2, ntyp=1,
 occupations='smearing', smearing='gaussian', degauss=0.01,
 ecutwfc=50.0
/

&ELECTRONS
/

&IONS
/

&CELL
/

ATOMIC_SPECIES
Mg 24.305 Mg.pbe-n-kjpaw_psl.0.3.0.UPF

ATOMIC_POSITIONS (crystal)
Mg  0.000  0.000  0.000
Mg  0.500  0.500  0.500

K_POINTS automatic
 15 15 15 0 0 0