&CONTROL
 calculation = 'relax'
 prefix='benzene'
 outdir='./outdir'
 pseudo_dir = '/home/cmp-physics/quantum_espresso/potentials/SSSP_efficiency_pseudos/'
/

&SYSTEM
 ibrav=0,
 nat=12, ntyp=2,
 nbnd=21,
 ecutwfc=50.0
/

&ELECTRONS
/

&IONS
/

ATOMIC_SPECIES
H 1.0 H.pbe-rrkjus_psl.1.0.0.UPF
C 12.0 C.pbe-n-kjpaw_psl.1.0.0.UPF

ATOMIC_POSITIONS (angstrom)
C 8.3719568738 6.7879880276 5.0158858634
C 8.3789884651 8.1861329833 5.0281963196
C 7.1576912940 6.0947112634 5.0093611625
C 5.9504844520 6.7998504493 5.0149759585
C 5.9575304605 8.1979889747 5.0271872694
C 7.1716786774 8.8911744823 5.0339751123
H 7.1517775665 5.0031086153 5.0004822773
H 5.0024908784 6.2585715550 5.0106675083
H 5.0149528923 8.7486510643 5.0325829289
H 7.1767756477 9.9825952079 5.0444658009
H 9.3271696726 8.7269562011 5.0342943315
H 9.3145831197 6.2370611760 5.0123654675

CELL_PARAMETERS (angstrom)
 14.4 0.0 0.0
 0.0 15.0 0.0
 0.0 0.0 10.1

K_POINTS gamma