&CONTROL
 calculation = 'bands'
 prefix='ge'
 outdir='./outdir'
 pseudo_dir = '/home/cmp-physics/quantum_espresso/potentials/SSSP_efficiency_pseudos/'
/

&SYSTEM
 ibrav=2,
 A=4.06929,
 nat=2, ntyp=1,
 occupations='smearing', smearing='gaussian', degauss=0.01,
 ecutwfc=50.0
/

&ELECTRONS
/

&IONS
/

&CELL
/

ATOMIC_SPECIES
Ge 72.64 ge_pbe_v1.4.uspp.F.UPF

ATOMIC_POSITIONS (crystal)
Ge 0.00 0.00 0.00
Ge 0.75 0.75 0.75

K_POINTS crystal_b
5
0.250 0.250 0.250 100 ! L
0.000 0.000 0.000 100 ! G
0.500 0.000 0.000 100 ! X
0.500 0.125 0.125 100 ! U
0.000 0.000 0.000 100 ! G

