&bands
prefix='ge'
outdir='./outdir'
filband='ge.bands.dat'
/
