&CONTROL
 calculation = 'relax'
 prefix='c'
 outdir='./outdir'
 pseudo_dir = '/home/cmp-physics/quantum_espresso/potentials/SSSP_efficiency_pseudos/'
/

&SYSTEM
 ibrav=1,
 A=3.64656,
 nat=9, ntyp=2,
 occupations='smearing', smearing='gaussian', degauss=0.01,
 ecutwfc=50.0
/

&ELECTRONS
/

&IONS
/

&CELL
/

ATOMIC_SPECIES
C 12.0107 C.pbe-n-kjpaw_psl.1.0.0.UPF
He 4.003 He_ONCV_PBE-1.0.oncvpsp.upf

ATOMIC_POSITIONS (crystal)
C 0.00 0.00 0.00
C 0.25 0.25 0.25
C 0.50 0.50 0.00
C 0.75 0.75 0.25
C 0.50 0.00 0.50
C 0.75 0.25 0.75
C 0.00 0.50 0.50
C 0.25 0.75 0.75
He 0.50 0.50 0.50

K_POINTS automatic
 10 10 10 0 0 0