&CONTROL
 calculation = 'vc-relax'
 pseudo_dir = '/home/cmp-physics/quantum_espresso/potentials/SSSP_efficiency_pseudos/'
/

&SYSTEM
 ibrav=4,
 A=3, C=3,
 nat=2, ntyp=1,
 occupations='smearing', smearing='gaussian', degauss=0.01,
 ecutwfc=50.0
/

&ELECTRONS
/

&IONS
/

&CELL
/

ATOMIC_SPECIES
Mg 24.305 Mg.pbe-n-kjpaw_psl.0.3.0.UPF

ATOMIC_POSITIONS (crystal)
Mg 0.0000 0.0000 0.0000
Mg 0.3333 0.6667 0.5000

K_POINTS automatic
 15 15 15 0 0 0