&CONTROL
 calculation = 'vc-relax'
 pseudo_dir = '/home/cmp-physics/quantum_espresso/potentials/SSSP_efficiency_pseudos/'
/

&SYSTEM
 ibrav=4,
 A=3, C=3,
 nat=2, ntyp=1,
 occupations='smearing', smearing='gaussian', degauss=0.01,
 ecutwfc=50.0
/

&ELECTRONS
/

&IONS
/

&CELL
/

ATOMIC_SPECIES
Li 6.941 li_pbe_v1.4.uspp.F.UPF

ATOMIC_POSITIONS (crystal)
Li 0.0000 0.0000 0.0000
Li 0.3333 0.6667 0.5000

K_POINTS automatic
 15 15 15 0 0 0