&bands
prefix='infinitene'
outdir='./outdir'
filband='infinitene.bands.dat'
/
