&CONTROL
 calculation = 'scf'
 prefix='infinitene'
 outdir='./outdir'
 pseudo_dir = '/home/cmp-physics/quantum_espresso/potentials/SSSP_efficiency_pseudos/'
/

&SYSTEM
 ibrav=0,
 nat=6, ntyp=2,
 occupations='smearing', smearing='gaussian', degauss=0.01,
 ecutwfc=50.0
/

&ELECTRONS
/

&IONS
/

ATOMIC_SPECIES
H 1.0 H.pbe-rrkjus_psl.1.0.0.UPF
C 12.0 C.pbe-n-kjpaw_psl.1.0.0.UPF

ATOMIC_POSITIONS (angstrom)
C             1.3256244485        5.9945178005        4.9879221819
C             2.3588045997       10.4348949860        4.9275968715
H             0.6117425647        0.5889225289        5.0816464581
C             0.0908325177        5.9921415905        4.9879544213
C             1.1241712977       10.4372768597        4.9276100638
H             0.8942136407       15.8679954924        5.0787914164

CELL_PARAMETERS (angstrom)
 2.47 0.0 0.0
 0.0 16.0 0.0
 0.0 0.0 10.1
K_POINTS automatic
 50 1 1 0 0 0