&CONTROL
 calculation = 'relax'
 restart_mode = 'from_scratch'
 prefix='water'
 outdir='./outdir'
 pseudo_dir = '/home/cmp-physics/quantum_espresso/potentials/SSSP_efficiency_pseudos/'
/

&SYSTEM
 ibrav=0,
 nat=75, ntyp=2,
 ecutwfc=30.0
/

&ELECTRONS
/

&IONS
/

ATOMIC_SPECIES
 W 183.84  W_pbe_v1.2.uspp.F.UPF
 S  32.065 s_pbe_v1.4.uspp.F.UPF

ATOMIC_POSITIONS crystal
   W       -0.17681        2.02989        8.22729
   S        1.41854        1.10880        6.65586
   S        1.41853        1.10880        9.79867
   W       -1.77218        4.79314        8.22729
   S       -0.17683        3.87205        6.65586
   S       -0.17684        3.87204        9.79867
   W       -3.36755        7.55638        8.22729
   S       -1.77220        6.63529        6.65586
   S       -1.77221        6.63529        9.79867
   W       -4.96291       10.31963        8.22729
   S       -3.36757        9.39854        6.65586
   S       -3.36758        9.39853        9.79867
   W       -6.55828       13.08287        8.22729
   S       -4.96294       12.16178        6.65586
   S       -4.96295       12.16178        9.79867
   W        3.01392        2.02989        8.22729
   S        4.60926        1.10880        6.65586
   S        4.60925        1.10880        9.79867
   W        1.41855        4.79314        8.22729
   S        3.01390        3.87205        6.65586
   S        3.01388        3.87204        9.79867
   W       -0.17682        7.55638        8.22729
   S        1.41853        6.63529        6.65586
   S        1.41852        6.63529        9.79867
   W       -1.77219       10.31963        8.22729
   S       -0.17684        9.39854        6.65586
   S       -0.17685        9.39853        9.79867
   W       -3.36756       13.08287        8.22729
   S       -1.77221       12.16178        6.65586
   S       -1.77222       12.16178        9.79867
   W        6.20464        2.02989        8.22729
   S        7.79999        1.10880        6.65586
   S        7.79998        1.10880        9.79867
   W        4.60928        4.79314        8.22729
   S        6.20462        3.87205        6.65586
   S        6.20461        3.87204        9.79867
   W        3.01391        7.55638        8.22729
   S        4.60925        6.63529        6.65586
   S        4.60924        6.63529        9.79867
   W        1.41854       10.31963        8.22729
   S        3.01388        9.39854        6.65586
   S        3.01387        9.39853        9.79867
   W       -0.17683       13.08287        8.22729
   S        1.41851       12.16178        6.65586
   S        1.41850       12.16178        9.79867
   W        9.39537        2.02989        8.22729
   S       10.99072        1.10880        6.65586
   S       10.99071        1.10880        9.79867
   W        7.80000        4.79314        8.22729
   S        9.39535        3.87205        6.65586
   S        9.39534        3.87204        9.79867
   W        6.20463        7.55638        8.22729
   S        7.79998        6.63529        6.65586
   S        7.79997        6.63529        9.79867
   W        4.60926       10.31963        8.22729
   S        6.20461        9.39854        6.65586
   S        6.20460        9.39853        9.79867
   W        3.01389       13.08287        8.22729
   S        4.60924       12.16178        6.65586
   S        4.60923       12.16178        9.79867
   W       12.58610        2.02989        8.22729
   S       14.18144        1.10880        6.65586
   S       14.18143        1.10880        9.79867
   W       10.99073        4.79314        8.22729
   S       12.58607        3.87205        6.65586
   S       12.58606        3.87204        9.79867
   W        9.39536        7.55638        8.22729
   S       10.99070        6.63529        6.65586
   S       10.99069        6.63529        9.79867
   W        7.79999       10.31963        8.22729
   S        9.39533        9.39854        6.65586
   S        9.39532        9.39853        9.79867
   W        6.20462       13.08287        8.22729
   S        7.79996       12.16178        6.65586
   S        7.79995       12.16178        9.79867

CELL_PARAMETERS (angstrom)
 15.95363   0.00000   0.00000
 -7.97685  13.81622   0.00000
  0.00000   0.00000  16.89998

K_POINTS automatic
1 1 1 0 0 0
