&CONTROL
 calculation = 'vc-relax'
 pseudo_dir = '/home/cmp-physics/quantum_espresso/potentials/SSSP_efficiency_pseudos/'
/

&SYSTEM
 ibrav=0,
 nat=4, ntyp=1,
 occupations='smearing', smearing='gaussian', degauss=0.01,
 ecutwfc=50.0
/

&ELECTRONS
/

&IONS
/

&CELL
/

ATOMIC_SPECIES
Al 26.98154 Al.pbe-n-kjpaw_psl.1.0.0.UPF

ATOMIC_POSITIONS (angstrom)
Al 0.000 0.000 0.000
Al 0.500 0.500 0.000
Al 0.500 0.000 0.500
Al 0.000 0.500 0.500

CELL_PARAMETERS (angstrom)
 3.000 0.000 0.000
 0.000 3.000 0.000
 0.000 0.000 3.000

K_POINTS automatic
 15 15 15 0 0 0