&bands
prefix='infinit'
outdir='./outdir'
filband='infinit.bands.dat'
/