&CONTROL
 calculation = 'bands'
 prefix='infinitene'
 outdir='./outdir'
 pseudo_dir = '/home/cmp-physics/quantum_espresso/potentials/SSSP_efficiency_pseudos/'
/

&SYSTEM
 ibrav=0,
 nat=2, ntyp=1,
 occupations='smearing', smearing='gaussian', degauss=0.01,
 ecutwfc=50.0
/

&ELECTRONS
/

&IONS
/

ATOMIC_SPECIES
Li 6.941 li_pbe_v1.4.uspp.F.UPF

ATOMIC_POSITIONS (angstrom)
Li 0.00000000000000 0.00000000000000 0.00000000000000 ! // Li
Li 0.50000000000000 0.50000000000000 0.50000000000000 ! // Li

CELL_PARAMETERS (angstrom)
   3.101800954   0.000000000   0.000000000
   0.000000000   3.101800954   0.000000000
   0.000000000   0.000000000   3.101800954

K_POINTS crystal_b
8
0.00 0.00 0.00 10 ! G
0.50 -0.50 0.50 10 ! H
0.00 0.00 0.50 10 ! N
0.00 0.00 0.00 10 ! G
0.25 0.25 0.25 10 ! P
0.50 -0.50 0.50 0 ! H
0.25 0.25 0.25 10 ! P
0.00 0.00 0.50 0 ! N