&control
  calculation='relax',
  restart_mode='from_scratch',
  prefix='ws2',
  pseudo_dir = '/home/cmp-physics/quantum_espresso/potentials/SSSP_efficiency_pseudos/'
  outdir='./outdir',
/

&system
  ibrav= 0,
  nat= 27, ntyp= 3,
  occupations='smearing', smearing='gaussian', degauss=0.01,
  ecutwfc=50.0
/

&electrons
  mixing_beta = 0.7
/

&ions
  ion_dynamics='bfgs',
/

ATOMIC_SPECIES
 W 183.84  W_pbe_v1.2.uspp.F.UPF
 S 32.065 s_pbe_v1.4.uspp.F.UPF
 V 50.9415 v_pbe_v1.4.uspp.F.UPF

ATOMIC_POSITIONS (angstrom)
W            -0.1803728349        2.0326200873        8.2272904346
S             1.4184850392        1.1130940749        6.6611992587
S             1.4184762644        1.1130659819        9.7932728274
W            -1.7715796324        4.7886875591        8.2272877266
S            -0.1449934699        3.8904025257        6.6925270808
S            -0.1449966909        3.8904035879        9.7621525181
W            -3.3675753967        7.5563650305        8.2272511516
S            -1.7685015677        6.6331141635        6.6612020996
S            -1.7685356946        6.6331234333        9.7932692577
W             3.0174292828        2.0325877421        8.2272866813
S             4.6115129221        1.1101029490        6.6574159383
S             4.6115249522        1.1101174221        9.7970359894
V             1.4186165739        4.7931594048        8.2273490922
S             2.9822142628        3.8903510117        6.6925232695
S             2.9822182955        3.8903671529        9.7621621266
W            -0.1727152790        7.5580690756        8.2272933236
S             1.4185579227        6.5986834261        6.6925254030
S             1.4185715879        6.5986757345        9.7621638996
W             6.2046080432        2.0298852741        8.2272240292
S             7.7976632248        1.1101492612        6.6574114405
S             7.7976174736        1.1101608111        9.7970448378
W             4.6087129917        4.7887093358        8.2272808728
S             6.2046206783        3.8693876664        6.6574104111
S             6.2046001563        3.8693529681        9.7970384588
W             3.0097860404        7.5581164112        8.2272871748
S             4.6055002659        6.6331401109        6.6611951555
S             4.6055145888        6.6331477983        9.7932795409

CELL_PARAMETERS (angstrom)
  9.57218   0.00000   0.00000
 -4.78611   8.28973   0.00000
  0.00000   0.00000  16.89998

K_POINTS {automatic}
  3 3 1 0 0 0
