&control
  calculation='nscf',
  restart_mode='from_scratch',
  prefix='ws2',
  pseudo_dir = '/home/cmp-physics/quantum_espresso/potentials/SSSP_efficiency_pseudos/'
  outdir='./outdir',
/

&system
  ibrav= 0,
  nat= 27, ntyp= 3,
  ecutwfc=30.0,
  occupations='tetrahedra'
/

&electrons
  mixing_beta = 0.7
/

&ions
  ion_dynamics='bfgs',
/

ATOMIC_SPECIES
 W 183.84  W_pbe_v1.2.uspp.F.UPF
 S  32.065 s_pbe_v1.4.uspp.F.UPF
 V 50.9415 v_pbe_v1.4.uspp.F.UPF

ATOMIC_POSITIONS (angstrom)
W            -0.1803789983        2.0326157871        8.2272910843
S             1.4184880141        1.1130810223        6.6612018704
S             1.4184795454        1.1130549860        9.7932726832
W            -1.7715868067        4.7886886873        8.2272890272
S            -0.1450040092        3.8903995875        6.6925247861
S            -0.1450017711        3.8904033554        9.7621500957
W            -3.3675732705        7.5563641425        8.2272536804
S            -1.7685121190        6.6331221522        6.6612000306
S            -1.7685438125        6.6331306887        9.7932731210
W             3.0174387861        2.0325830265        8.2272879939
S             4.6115249071        1.1101083005        6.6574129257
S             4.6115348639        1.1101218032        9.7970404998
V             1.4186127077        4.7931584454        8.2273423241
S             2.9822183536        3.8903471842        6.6925226356
S             2.9822170028        3.8903661317        9.7621581715
W            -0.1727154111        7.5580753613        8.2272920425
S             1.4185575065        6.5986876661        6.6925218609
S             1.4185710967        6.5986745148        9.7621608502
W             6.2046087245        2.0298856649        8.2272270184
S             7.7976542336        1.1101520535        6.6574098989
S             7.7976098915        1.1101620079        9.7970484034
W             4.6087187479        4.7887070515        8.2272818969
S             6.2046214822        3.8693800212        6.6574091416
S             6.2046011010        3.8693470465        9.7970428963
W             3.0097847631        7.5581214042        8.2272877937
S             4.6055110102        6.6331472891        6.6611965231
S             4.6055234605        6.6331546187        9.7932807445

CELL_PARAMETERS (angstrom)
  9.57218   0.00000   0.00000
 -4.78611   8.28973   0.00000
  0.00000   0.00000  16.89998

K_POINTS {automatic}
  25 25 1 0 0 0
