&CONTROL
 calculation = 'bands'
 prefix='c'
 outdir='./outdir'
 pseudo_dir = '/home/cmp-physics/quantum_espresso/potentials/SSSP_efficiency_pseudos/'
/

&SYSTEM
 ibrav=2,
 A=2.52057,
 nat=2, ntyp=1,
 occupations='smearing', smearing='gaussian', degauss=0.01,
 ecutwfc=50.0
/

&ELECTRONS
/

&IONS
/

&CELL
/

ATOMIC_SPECIES
C 12.0107 C.pbe-n-kjpaw_psl.1.0.0.UPF

ATOMIC_POSITIONS (crystal)
C 0.00 0.00 0.00
C 0.75 0.75 0.75

K_POINTS crystal_b
5
0.250 0.250 0.250 100 ! L
0.000 0.000 0.000 100 ! G
0.500 0.000 0.000 100 ! X
0.500 0.125 0.125 100 ! U
0.000 0.000 0.000 100 ! G

