&bands
prefix='c'
outdir='./outdir'
filband='c.bands.dat'
/
