&CONTROL
 calculation = 'relax'
 prefix='Ge'
 outdir='./outdir'
 pseudo_dir = '/home/cmp-physics/quantum_espresso/potentials/SSSP_efficiency_pseudos/'
/

&SYSTEM
 ibrav=1,
 A=5.36498,
 nat=9, ntyp=2,
 occupations='smearing', smearing='gaussian', degauss=0.01,
 ecutwfc=50.0
/

&ELECTRONS
/

&IONS
/

&CELL
/

ATOMIC_SPECIES
Ge 72.64 ge_pbe_v1.4.uspp.F.UPF
He 4.003 He_ONCV_PBE-1.0.oncvpsp.upf

ATOMIC_POSITIONS (crystal)
Ge 0.00 0.00 0.00
Ge 0.25 0.25 0.25
Ge 0.50 0.50 0.00
Ge 0.75 0.75 0.25
Ge 0.50 0.00 0.50
Ge 0.75 0.25 0.75
Ge 0.00 0.50 0.50
Ge 0.25 0.75 0.75
He 0.25 0.75 0.25

K_POINTS automatic
 16 16 16 0 0 0