&CONTROL
 calculation = 'scf'
 prefix='infinitene'
 outdir='./outdir'
 pseudo_dir = '/home/cmp-physics/quantum_espresso/potentials/SSSP_efficiency_pseudos/'
/

&SYSTEM
 ibrav=0,
 nat=66, ntyp=2,
 occupations='smearing', smearing='gaussian', degauss=0.01,
 ecutwfc=50.0
/

&ELECTRONS
/

&IONS
/

ATOMIC_SPECIES
H 1.0 H.pbe-rrkjus_psl.1.0.0.UPF
C 12.0 C.pbe-n-kjpaw_psl.1.0.0.UPF

ATOMIC_POSITIONS (angstrom)
C 6.989919 22.705857 5.252815
C 8.329366 22.464513 5.418127
C 6.062303 21.61927 5.132363
C 6.500081 20.320762 5.180355
C 8.838592 21.122391 5.473397
C 7.893506 20.014846 5.350554
H 6.616844 23.731824 5.211568
H 5 21.837553 5
H 5.794751 19.490244 5.087904
H 9.03794 23.292022 5.511485
C 8.365451 18.70561 5.400085
C 10.194105 20.848726 5.638351
C 9.743972 18.409088 5.566152
H 7.657194 17.876443 5.306681
C 10.69208 19.520224 5.689725
H 10.901513 21.678628 5.731507
C 10.224169 17.09404 5.61394
C 12.054808 19.239568 5.852936
C 11.597613 16.802333 5.776996
C 12.547608 17.915678 5.900984
H 9.516089 16.264934 5.520377
H 12.762217 20.069272 5.94619
C 12.082137 15.484664 5.822904
C 13.913801 17.63146 6.062255
C 14.404059 16.309812 6.107934
C 13.453192 15.195449 5.983756
H 11.374251 14.655446 5.729304
H 14.621328 18.461001 6.155647
C 13.940147 13.876293 6.028408
C 15.772232 16.023622 6.267906
C 16.260845 14.703323 6.312423
C 15.309724 13.588661 6.18819
H 13.232401 13.046971 5.934841
H 16.479864 16.853046 6.361401
C 17.630424 14.415696 6.472202
C 18.117379 13.096539 6.516851
C 15.798342 12.268364 6.232709
C 17.166515 11.982173 6.392677
C 19.488438 12.807334 6.677693
C 19.972966 11.489665 6.723594
C 17.656783 10.660529 6.438354
C 19.022976 10.376315 6.599615
C 21.346415 11.197972 6.886635
C 21.826622 9.882925 6.934416
C 19.51579 9.05243 6.647658
C 20.87852 8.771783 6.810854
C 23.205149 9.586419 7.100464
C 23.677106 8.277186 7.149986
C 21.37651 7.443287 6.862222
C 22.732027 7.169634 7.027156
H 18.338167 15.245018 6.56577
H 15.090711 11.438937 6.139218
H 16.949259 9.830983 6.344969
H 20.196317 13.636556 6.77129
H 18.808387 8.22272 6.554414
H 22.054488 12.027084 6.980193
H 23.913398 10.415592 7.193859
H 20.66911 6.613377 6.769077
C 25.070536 7.971285 7.320163
C 23.241268 5.827517 7.082418
C 24.58072 5.586186 7.247709
C 25.508328 6.67278 7.368147
H 22.532702 5 6.989071
H 24.953806 4.560222 7.288949
H 25.775858 8.80181 7.412603
H 26.570637 6.45451 7.500491

CELL_PARAMETERS (angstrom)
 32.0 0.0 0.0
 0.0 29.5  0.0
 0.0 0.0 13.0

K_POINTS automatic
 x 1 1 0 0